p edge 100 508
e 1 39
e 1 52
e 1 54
e 1 67
e 1 79
e 1 99
e 2 8
e 2 10
e 2 40
e 2 42
e 2 54
e 2 55
e 2 57
e 2 64
e 2 76
e 2 81
e 3 7
e 3 12
e 3 18
e 3 19
e 3 43
e 3 56
e 3 60
e 3 70
e 3 78
e 3 79
e 3 88
e 3 97
e 3 98
e 4 11
e 4 23
e 4 28
e 4 37
e 4 57
e 4 68
e 4 79
e 4 95
e 5 22
e 5 25
e 5 31
e 5 70
e 5 77
e 5 80
e 5 90
e 6 41
e 6 48
e 6 62
e 6 68
e 6 69
e 6 70
e 6 75
e 6 89
e 6 91
e 6 98
e 7 30
e 7 37
e 7 93
e 8 14
e 8 16
e 8 23
e 8 30
e 8 51
e 8 67
e 8 97
e 8 98
e 9 28
e 9 54
e 9 56
e 9 67
e 9 69
e 10 11
e 10 17
e 10 57
e 10 62
e 10 76
e 10 97
e 10 99
e 11 13
e 11 19
e 11 27
e 11 33
e 11 36
e 11 46
e 11 56
e 11 61
e 11 65
e 11 68
e 11 71
e 11 75
e 11 76
e 11 88
e 12 44
e 12 55
e 12 56
e 12 57
e 12 60
e 12 74
e 12 75
e 12 87
e 13 28
e 13 33
e 13 69
e 13 76
e 13 77
e 13 84
e 13 85
e 13 96
e 14 18
e 14 21
e 14 27
e 14 36
e 14 49
e 14 53
e 14 65
e 14 67
e 14 95
e 15 32
e 15 35
e 15 38
e 15 44
e 15 54
e 15 77
e 15 81
e 15 82
e 15 83
e 15 90
e 15 94
e 16 17
e 16 31
e 16 35
e 16 68
e 16 70
e 16 72
e 16 78
e 16 80
e 16 84
e 16 91
e 17 18
e 17 19
e 17 24
e 17 34
e 17 36
e 17 46
e 17 59
e 17 65
e 17 68
e 17 69
e 17 74
e 17 79
e 17 86
e 17 87
e 17 91
e 17 95
e 18 19
e 18 25
e 18 39
e 18 47
e 18 48
e 18 61
e 18 67
e 18 73
e 18 83
e 18 93
e 18 97
e 18 98
e 19 20
e 19 25
e 19 45
e 19 46
e 19 60
e 19 66
e 19 97
e 20 22
e 20 33
e 20 47
e 20 52
e 20 66
e 20 67
e 20 68
e 20 85
e 20 88
e 20 94
e 21 22
e 21 67
e 21 77
e 21 84
e 21 93
e 22 38
e 22 54
e 22 64
e 22 70
e 22 81
e 22 84
e 22 94
e 22 98
e 22 100
e 23 45
e 23 55
e 23 56
e 23 71
e 24 45
e 24 52
e 24 57
e 24 59
e 24 63
e 24 69
e 24 89
e 24 97
e 24 99
e 25 26
e 25 28
e 25 29
e 25 45
e 25 61
e 25 72
e 25 75
e 25 77
e 25 79
e 25 84
e 25 86
e 25 90
e 25 98
e 25 100
e 26 57
e 26 70
e 26 100
e 27 32
e 27 40
e 27 58
e 27 65
e 27 77
e 27 82
e 27 84
e 27 86
e 27 98
e 28 30
e 28 32
e 28 40
e 28 67
e 28 74
e 28 87
e 29 31
e 29 44
e 29 48
e 29 58
e 29 85
e 29 91
e 30 42
e 30 51
e 30 53
e 30 55
e 30 56
e 30 64
e 30 77
e 30 86
e 31 74
e 31 84
e 32 35
e 32 41
e 32 42
e 32 55
e 32 57
e 32 64
e 32 66
e 32 78
e 32 84
e 33 37
e 33 43
e 33 46
e 33 50
e 33 51
e 33 52
e 33 56
e 33 60
e 33 84
e 34 41
e 34 46
e 34 51
e 34 60
e 34 64
e 34 84
e 34 100
e 35 51
e 35 61
e 35 84
e 35 89
e 35 93
e 35 95
e 36 38
e 36 43
e 36 50
e 36 52
e 36 69
e 36 71
e 36 74
e 36 76
e 36 78
e 36 81
e 36 100
e 37 47
e 37 54
e 37 64
e 37 94
e 38 43
e 38 51
e 38 54
e 38 56
e 38 61
e 38 79
e 38 97
e 39 40
e 39 42
e 39 50
e 39 60
e 39 61
e 39 63
e 39 66
e 39 72
e 39 74
e 39 84
e 40 45
e 40 49
e 40 52
e 40 58
e 40 71
e 41 58
e 41 71
e 41 96
e 42 55
e 42 66
e 42 70
e 42 96
e 43 53
e 43 54
e 43 58
e 43 69
e 43 93
e 44 48
e 44 63
e 44 82
e 44 99
e 44 100
e 45 46
e 45 59
e 45 89
e 45 92
e 45 95
e 45 97
e 46 53
e 46 57
e 46 59
e 46 60
e 46 73
e 47 52
e 47 53
e 47 58
e 47 60
e 47 61
e 47 67
e 47 70
e 47 74
e 47 85
e 48 52
e 48 58
e 48 79
e 48 83
e 48 89
e 48 98
e 48 100
e 49 71
e 49 77
e 49 78
e 49 92
e 50 52
e 50 54
e 50 59
e 50 68
e 50 78
e 50 94
e 51 59
e 51 92
e 52 54
e 52 56
e 52 60
e 52 65
e 52 84
e 53 70
e 53 98
e 53 99
e 54 61
e 54 62
e 54 63
e 54 73
e 54 75
e 54 88
e 54 95
e 55 73
e 55 76
e 55 80
e 55 93
e 55 96
e 56 58
e 56 64
e 56 67
e 56 69
e 56 96
e 57 59
e 57 65
e 57 76
e 57 79
e 57 90
e 57 93
e 58 69
e 58 77
e 59 66
e 59 82
e 59 91
e 60 66
e 60 74
e 60 79
e 60 83
e 60 87
e 60 91
e 61 64
e 61 66
e 61 74
e 61 76
e 61 83
e 62 72
e 62 79
e 62 84
e 62 87
e 62 94
e 63 66
e 63 87
e 64 74
e 64 77
e 64 81
e 64 84
e 64 87
e 65 70
e 65 73
e 65 74
e 65 80
e 65 86
e 66 77
e 66 82
e 66 85
e 67 78
e 67 85
e 67 87
e 67 91
e 67 100
e 68 71
e 69 87
e 69 99
e 70 75
e 70 81
e 70 91
e 70 98
e 71 72
e 71 78
e 71 94
e 71 97
e 71 100
e 72 78
e 72 92
e 73 77
e 73 80
e 73 94
e 73 95
e 74 79
e 74 87
e 74 89
e 74 91
e 74 97
e 74 100
e 76 81
e 76 83
e 76 86
e 76 90
e 76 96
e 76 98
e 77 90
e 78 95
e 78 97
e 79 97
e 81 94
e 82 90
e 83 90
e 83 91
e 84 85
e 84 95
e 84 98
e 85 87
e 85 93
e 86 87
e 88 97
e 88 100
e 89 99
e 90 99
e 91 92
e 91 96
e 92 94
e 92 97
e 93 94
e 93 95
e 93 96
